183	32	4	98	
9	10	11	11

0	0	0	0	0	0	3	1	2	3
1	0	0	7	0	10	1	21
2	3	0	0	0	6	1	6
3	7	0	0	0	1	1	4
4	0	0	4	0	10	1	5
5	0	3	0	0	2	1	9
6	0	3	0	0	5	1	7
7	0	1	0	0	9	1	8
8	5	0	0	0	7	1	10
9	8	0	0	0	1	1	12
10	6	0	0	0	4	1	11
11	0	6	0	0	7	1	13
12	0	9	0	0	4	1	16
13	4	0	0	0	5	1	14
14	0	0	5	0	7	1	15
15	0	0	6	0	10	1	18
16	0	0	0	1	8	1	17
17	3	0	0	0	6	2	19	21
18	1	0	0	0	4	1	20
19	0	1	0	0	4	2	20	28
20	0	10	0	0	10	1	22
21	0	0	0	4	9	1	23
22	6	0	0	0	3	1	25
23	0	10	0	0	1	1	24
24	0	0	2	0	10	2	29	30
25	6	0	0	0	1	1	26
26	0	0	0	2	10	1	27
27	0	0	8	0	10	1	31
28	0	0	0	7	8	1	31
29	0	0	2	0	2	1	31
30	0	2	0	0	9	1	31
31	0	0	0	0	0	0
